18
14
3 16 11
14 4 17 12 2 1 16 0 5 6 13 3 15
3 0 8 17 14 4 6 2 16
7 12 16 4 2 5 15 0 14 13
12 10 9 3 11
11 17 7 0 8 4 15
5 14 8
13 5 0 11 9 12 6 16 4 15 14 17 8 1 2
6 10 14 5 9
8 3 6 10 11 5 13 17 16 1 14 12
6 1 4
2 13 14 10 1 17 4 6 5
14 0 13 16 5 15 4 6 10
10 6 14 8 3 16 12 7
